\ Model model5. MPC stochastic60_stochastic
\ LP format - for model browsing. Use MPS format to capture full model detail.
Maximize
  4.89908e-05 pv_ev_1 + 4.89908e-05 pv_load_1
   + 4.08257e-06 pv_ev[2020-11-09_14_00_00,0]
   + 4.08257e-06 pv_ev[2020-11-09_14_00_00,1]
   + 4.08257e-06 pv_ev[2020-11-09_14_00_00,2]
   + 4.08257e-06 pv_ev[2020-11-09_14_00_00,3]
   + 4.08257e-06 pv_ev[2020-11-09_14_00_00,4]
   + 4.08257e-06 pv_ev[2020-11-09_14_00_00,5]
   + 4.08257e-06 pv_ev[2020-11-09_14_00_00,6]
   + 4.08257e-06 pv_ev[2020-11-09_14_00_00,7]
   + 4.08257e-06 pv_ev[2020-11-09_14_00_00,8]
   + 4.08257e-06 pv_ev[2020-11-09_14_00_00,9]
   + 4.08257e-06 pv_ev[2020-11-09_14_00_00,10]
   + 4.08257e-06 pv_ev[2020-11-09_14_00_00,11]
   + 4.08257e-06 pv_load[2020-11-09_14_00_00,0]
   + 4.08257e-06 pv_load[2020-11-09_14_00_00,1]
   + 4.08257e-06 pv_load[2020-11-09_14_00_00,2]
   + 4.08257e-06 pv_load[2020-11-09_14_00_00,3]
   + 4.08257e-06 pv_load[2020-11-09_14_00_00,4]
   + 4.08257e-06 pv_load[2020-11-09_14_00_00,5]
   + 4.08257e-06 pv_load[2020-11-09_14_00_00,6]
   + 4.08257e-06 pv_load[2020-11-09_14_00_00,7]
   + 4.08257e-06 pv_load[2020-11-09_14_00_00,8]
   + 4.08257e-06 pv_load[2020-11-09_14_00_00,9]
   + 4.08257e-06 pv_load[2020-11-09_14_00_00,10]
   + 4.08257e-06 pv_load[2020-11-09_14_00_00,11] + 0.0416666666666667 C47
   + 0.0416666666666667 C48 + 0.0416666666666667 C49
   + 0.0416666666666667 C50 + 0.0416666666666667 C51
   + 0.0416666666666667 C52 + 0.0416666666666667 C53
   + 0.0416666666666667 C54 + 0.0416666666666667 C55
   + 0.0416666666666667 C56 + 0.0416666666666667 C57
   + 0.0416666666666667 C58 - 0.5 Constant
Subject To
 PV_balance_1: pv_ev_1 + pv_load_1 + pv_grid_1 = 5255.640122999999
 Load_balance_1: pv_load_1 + grid_load_1 = 5339.805014
 Grid_bought_balance_1: C5 - grid_ev_1 - grid_load_1 = 0
 Grid_sold_balance_1: - pv_grid_1 + C6 = 0
 R4: C4 <= 3700
 SOC_update_1: soc_2 - 5.9375e-05 C4 = 0.999999997625
 R6: C7 - C10 >= 0
 PV_balance[2020-11-09_14_00_00,0]: pv_ev[2020-11-09_14_00_00,0]
   + pv_load[2020-11-09_14_00_00,0] + pv_grid[2020-11-09_14_00_00,0]
   = 4908.352127311457
 PV_balance[2020-11-09_14_00_00,1]: pv_ev[2020-11-09_14_00_00,1]
   + pv_load[2020-11-09_14_00_00,1] + pv_grid[2020-11-09_14_00_00,1]
   = 2993.893559072316
 PV_balance[2020-11-09_14_00_00,2]: pv_ev[2020-11-09_14_00_00,2]
   + pv_load[2020-11-09_14_00_00,2] + pv_grid[2020-11-09_14_00_00,2]
   = 6934.337643452758
 PV_balance[2020-11-09_14_00_00,3]: pv_ev[2020-11-09_14_00_00,3]
   + pv_load[2020-11-09_14_00_00,3] + pv_grid[2020-11-09_14_00_00,3]
   = 4175.741158540437
 PV_balance[2020-11-09_14_00_00,4]: pv_ev[2020-11-09_14_00_00,4]
   + pv_load[2020-11-09_14_00_00,4] + pv_grid[2020-11-09_14_00_00,4]
   = 4920.971764880582
 PV_balance[2020-11-09_14_00_00,5]: pv_ev[2020-11-09_14_00_00,5]
   + pv_load[2020-11-09_14_00_00,5] + pv_grid[2020-11-09_14_00_00,5]
   = 3728.094514403668
 PV_balance[2020-11-09_14_00_00,6]: pv_ev[2020-11-09_14_00_00,6]
   + pv_load[2020-11-09_14_00_00,6] + pv_grid[2020-11-09_14_00_00,6]
   = 4477.097765481799
 PV_balance[2020-11-09_14_00_00,7]: pv_ev[2020-11-09_14_00_00,7]
   + pv_load[2020-11-09_14_00_00,7] + pv_grid[2020-11-09_14_00_00,7]
   = 6922.110570304074
 PV_balance[2020-11-09_14_00_00,8]: pv_ev[2020-11-09_14_00_00,8]
   + pv_load[2020-11-09_14_00_00,8] + pv_grid[2020-11-09_14_00_00,8]
   = 2952.615510920439
 PV_balance[2020-11-09_14_00_00,9]: pv_ev[2020-11-09_14_00_00,9]
   + pv_load[2020-11-09_14_00_00,9] + pv_grid[2020-11-09_14_00_00,9]
   = 6188.942361371115
 PV_balance[2020-11-09_14_00_00,10]: pv_ev[2020-11-09_14_00_00,10]
   + pv_load[2020-11-09_14_00_00,10] + pv_grid[2020-11-09_14_00_00,10]
   = 8288.709051786322
 PV_balance[2020-11-09_14_00_00,11]: pv_ev[2020-11-09_14_00_00,11]
   + pv_load[2020-11-09_14_00_00,11] + pv_grid[2020-11-09_14_00_00,11]
   = 2913.359068876292
 Load_balance[2020-11-09_14_00_00,0]: pv_load[2020-11-09_14_00_00,0]
   + grid_load[2020-11-09_14_00_00,0] = 4967.914872191797
 Load_balance[2020-11-09_14_00_00,1]: pv_load[2020-11-09_14_00_00,1]
   + grid_load[2020-11-09_14_00_00,1] = 4967.914872191797
 Load_balance[2020-11-09_14_00_00,2]: pv_load[2020-11-09_14_00_00,2]
   + grid_load[2020-11-09_14_00_00,2] = 4967.914872191797
 Load_balance[2020-11-09_14_00_00,3]: pv_load[2020-11-09_14_00_00,3]
   + grid_load[2020-11-09_14_00_00,3] = 4967.914872191797
 Load_balance[2020-11-09_14_00_00,4]: pv_load[2020-11-09_14_00_00,4]
   + grid_load[2020-11-09_14_00_00,4] = 4967.914872191797
 Load_balance[2020-11-09_14_00_00,5]: pv_load[2020-11-09_14_00_00,5]
   + grid_load[2020-11-09_14_00_00,5] = 4967.914872191797
 Load_balance[2020-11-09_14_00_00,6]: pv_load[2020-11-09_14_00_00,6]
   + grid_load[2020-11-09_14_00_00,6] = 4967.914872191797
 Load_balance[2020-11-09_14_00_00,7]: pv_load[2020-11-09_14_00_00,7]
   + grid_load[2020-11-09_14_00_00,7] = 4967.914872191797
 Load_balance[2020-11-09_14_00_00,8]: pv_load[2020-11-09_14_00_00,8]
   + grid_load[2020-11-09_14_00_00,8] = 4967.914872191797
 Load_balance[2020-11-09_14_00_00,9]: pv_load[2020-11-09_14_00_00,9]
   + grid_load[2020-11-09_14_00_00,9] = 4967.914872191797
 Load_balance[2020-11-09_14_00_00,10]: pv_load[2020-11-09_14_00_00,10]
   + grid_load[2020-11-09_14_00_00,10] = 4967.914872191797
 Load_balance[2020-11-09_14_00_00,11]: pv_load[2020-11-09_14_00_00,11]
   + grid_load[2020-11-09_14_00_00,11] = 4967.914872191797
 Grid_bought_balance[2020-11-09_14_00_00,0]: C71
   - grid_ev[2020-11-09_14_00_00,0] - grid_load[2020-11-09_14_00_00,0] = 0
 Grid_bought_balance[2020-11-09_14_00_00,1]: C72
   - grid_ev[2020-11-09_14_00_00,1] - grid_load[2020-11-09_14_00_00,1] = 0
 Grid_bought_balance[2020-11-09_14_00_00,2]: C73
   - grid_ev[2020-11-09_14_00_00,2] - grid_load[2020-11-09_14_00_00,2] = 0
 Grid_bought_balance[2020-11-09_14_00_00,3]: C74
   - grid_ev[2020-11-09_14_00_00,3] - grid_load[2020-11-09_14_00_00,3] = 0
 Grid_bought_balance[2020-11-09_14_00_00,4]: C75
   - grid_ev[2020-11-09_14_00_00,4] - grid_load[2020-11-09_14_00_00,4] = 0
 Grid_bought_balance[2020-11-09_14_00_00,5]: C76
   - grid_ev[2020-11-09_14_00_00,5] - grid_load[2020-11-09_14_00_00,5] = 0
 Grid_bought_balance[2020-11-09_14_00_00,6]: C77
   - grid_ev[2020-11-09_14_00_00,6] - grid_load[2020-11-09_14_00_00,6] = 0
 Grid_bought_balance[2020-11-09_14_00_00,7]: C78
   - grid_ev[2020-11-09_14_00_00,7] - grid_load[2020-11-09_14_00_00,7] = 0
 Grid_bought_balance[2020-11-09_14_00_00,8]: C79
   - grid_ev[2020-11-09_14_00_00,8] - grid_load[2020-11-09_14_00_00,8] = 0
 Grid_bought_balance[2020-11-09_14_00_00,9]: C80
   - grid_ev[2020-11-09_14_00_00,9] - grid_load[2020-11-09_14_00_00,9] = 0
 Grid_bought_balance[2020-11-09_14_00_00,10]: C81
   - grid_ev[2020-11-09_14_00_00,10] - grid_load[2020-11-09_14_00_00,10]
   = 0
 Grid_bought_balance[2020-11-09_14_00_00,11]: C82
   - grid_ev[2020-11-09_14_00_00,11] - grid_load[2020-11-09_14_00_00,11]
   = 0
 Grid_sold_balance[2020-11-09_14_00_00,0]: - pv_grid[2020-11-09_14_00_00,0]
   + C83 = 0
 Grid_sold_balance[2020-11-09_14_00_00,1]: - pv_grid[2020-11-09_14_00_00,1]
   + C84 = 0
 Grid_sold_balance[2020-11-09_14_00_00,2]: - pv_grid[2020-11-09_14_00_00,2]
   + C85 = 0
 Grid_sold_balance[2020-11-09_14_00_00,3]: - pv_grid[2020-11-09_14_00_00,3]
   + C86 = 0
 Grid_sold_balance[2020-11-09_14_00_00,4]: - pv_grid[2020-11-09_14_00_00,4]
   + C87 = 0
 Grid_sold_balance[2020-11-09_14_00_00,5]: - pv_grid[2020-11-09_14_00_00,5]
   + C88 = 0
 Grid_sold_balance[2020-11-09_14_00_00,6]: - pv_grid[2020-11-09_14_00_00,6]
   + C89 = 0
 Grid_sold_balance[2020-11-09_14_00_00,7]: - pv_grid[2020-11-09_14_00_00,7]
   + C90 = 0
 Grid_sold_balance[2020-11-09_14_00_00,8]: - pv_grid[2020-11-09_14_00_00,8]
   + C91 = 0
 Grid_sold_balance[2020-11-09_14_00_00,9]: - pv_grid[2020-11-09_14_00_00,9]
   + C92 = 0
 Grid_sold_balance[2020-11-09_14_00_00,10]:
   - pv_grid[2020-11-09_14_00_00,10] + C93 = 0
 Grid_sold_balance[2020-11-09_14_00_00,11]:
   - pv_grid[2020-11-09_14_00_00,11] + C94 = 0
 R55: C59 <= 0
 R56: C60 <= 0
 R57: C61 <= 0
 R58: C62 <= 0
 R59: C63 <= 0
 R60: C64 <= 0
 R61: C65 <= 0
 R62: C66 <= 0
 R63: C67 <= 0
 R64: C68 <= 0
 R65: C69 <= 0
 R66: C70 <= 0
 SOC_continuity[0]: - soc_2 + C47 = 0
 SOC_continuity[1]: - soc_2 + C48 = 0
 SOC_continuity[2]: - soc_2 + C49 = 0
 SOC_continuity[3]: - soc_2 + C50 = 0
 SOC_continuity[4]: - soc_2 + C51 = 0
 SOC_continuity[5]: - soc_2 + C52 = 0
 SOC_continuity[6]: - soc_2 + C53 = 0
 SOC_continuity[7]: - soc_2 + C54 = 0
 SOC_continuity[8]: - soc_2 + C55 = 0
 SOC_continuity[9]: - soc_2 + C56 = 0
 SOC_continuity[10]: - soc_2 + C57 = 0
 SOC_continuity[11]: - soc_2 + C58 = 0
 R79: C95 - C131 >= 0
 R80: C96 - C132 >= 0
 R81: C97 - C133 >= 0
 R82: C98 - C134 >= 0
 R83: C99 - C135 >= 0
 R84: C100 - C136 >= 0
 R85: C101 - C137 >= 0
 R86: C102 - C138 >= 0
 R87: C103 - C139 >= 0
 R88: C104 - C140 >= 0
 R89: C105 - C141 >= 0
 R90: C106 - C142 >= 0
 Grid_balance_1: - C4 - C6 + [ C5 * C7 + C6 * C7 ] = 84.16489100000126
 EV_balance_1: - pv_ev_1 + C4 + [ pv_ev_1 * C10 - grid_ev_1 * C10 ] = 0
 Grid_balance[2020-11-09_14_00_00,0]: - C59 - C83 + [ C71 * C95 + C83 * C95
   ] = 59.56274488033978
 Grid_balance[2020-11-09_14_00_00,1]: - C60 - C84 + [ C72 * C96 + C84 * C96
   ] = 1974.021313119481
 Grid_balance[2020-11-09_14_00_00,2]: - C61 - C85 + [ C73 * C97 + C85 * C97
   ] = -1966.422771260961
 Grid_balance[2020-11-09_14_00_00,3]: - C62 - C86 + [ C74 * C98 + C86 * C98
   ] = 792.1737136513602
 Grid_balance[2020-11-09_14_00_00,4]: - C63 - C87 + [ C75 * C99 + C87 * C99
   ] = 46.9431073112155
 Grid_balance[2020-11-09_14_00_00,5]: - C64 - C88 + [ C76 * C100
   + C88 * C100 ] = 1239.82035778813
 Grid_balance[2020-11-09_14_00_00,6]: - C65 - C89 + [ C77 * C101
   + C89 * C101 ] = 490.8171067099984
 Grid_balance[2020-11-09_14_00_00,7]: - C66 - C90 + [ C78 * C102
   + C90 * C102 ] = -1954.195698112277
 Grid_balance[2020-11-09_14_00_00,8]: - C67 - C91 + [ C79 * C103
   + C91 * C103 ] = 2015.299361271358
 Grid_balance[2020-11-09_14_00_00,9]: - C68 - C92 + [ C80 * C104
   + C92 * C104 ] = -1221.027489179318
 Grid_balance[2020-11-09_14_00_00,10]: - C69 - C93 + [ C81 * C105
   + C93 * C105 ] = -3320.794179594524
 Grid_balance[2020-11-09_14_00_00,11]: - C70 - C94 + [ C82 * C106
   + C94 * C106 ] = 2054.555803315505
 EV_balance[2020-11-09_14_00_00,0]: - pv_ev[2020-11-09_14_00_00,0] + C59
   + [ pv_ev[2020-11-09_14_00_00,0] * C131
   - grid_ev[2020-11-09_14_00_00,0] * C131 ] = 0
 EV_balance[2020-11-09_14_00_00,1]: - pv_ev[2020-11-09_14_00_00,1] + C60
   + [ pv_ev[2020-11-09_14_00_00,1] * C132
   - grid_ev[2020-11-09_14_00_00,1] * C132 ] = 0
 EV_balance[2020-11-09_14_00_00,2]: - pv_ev[2020-11-09_14_00_00,2] + C61
   + [ pv_ev[2020-11-09_14_00_00,2] * C133
   - grid_ev[2020-11-09_14_00_00,2] * C133 ] = 0
 EV_balance[2020-11-09_14_00_00,3]: - pv_ev[2020-11-09_14_00_00,3] + C62
   + [ pv_ev[2020-11-09_14_00_00,3] * C134
   - grid_ev[2020-11-09_14_00_00,3] * C134 ] = 0
 EV_balance[2020-11-09_14_00_00,4]: - pv_ev[2020-11-09_14_00_00,4] + C63
   + [ pv_ev[2020-11-09_14_00_00,4] * C135
   - grid_ev[2020-11-09_14_00_00,4] * C135 ] = 0
 EV_balance[2020-11-09_14_00_00,5]: - pv_ev[2020-11-09_14_00_00,5] + C64
   + [ pv_ev[2020-11-09_14_00_00,5] * C136
   - grid_ev[2020-11-09_14_00_00,5] * C136 ] = 0
 EV_balance[2020-11-09_14_00_00,6]: - pv_ev[2020-11-09_14_00_00,6] + C65
   + [ pv_ev[2020-11-09_14_00_00,6] * C137
   - grid_ev[2020-11-09_14_00_00,6] * C137 ] = 0
 EV_balance[2020-11-09_14_00_00,7]: - pv_ev[2020-11-09_14_00_00,7] + C66
   + [ pv_ev[2020-11-09_14_00_00,7] * C138
   - grid_ev[2020-11-09_14_00_00,7] * C138 ] = 0
 EV_balance[2020-11-09_14_00_00,8]: - pv_ev[2020-11-09_14_00_00,8] + C67
   + [ pv_ev[2020-11-09_14_00_00,8] * C139
   - grid_ev[2020-11-09_14_00_00,8] * C139 ] = 0
 EV_balance[2020-11-09_14_00_00,9]: - pv_ev[2020-11-09_14_00_00,9] + C68
   + [ pv_ev[2020-11-09_14_00_00,9] * C140
   - grid_ev[2020-11-09_14_00_00,9] * C140 ] = 0
 EV_balance[2020-11-09_14_00_00,10]: - pv_ev[2020-11-09_14_00_00,10] + C69
   + [ pv_ev[2020-11-09_14_00_00,10] * C141
   - grid_ev[2020-11-09_14_00_00,10] * C141 ] = 0
 EV_balance[2020-11-09_14_00_00,11]: - pv_ev[2020-11-09_14_00_00,11] + C70
   + [ pv_ev[2020-11-09_14_00_00,11] * C142
   - grid_ev[2020-11-09_14_00_00,11] * C142 ] = 0
Bounds
 0.2 <= soc_2 <= 1
 C4 <= 3700
 0.2 <= C47 <= 1
 0.2 <= C48 <= 1
 0.2 <= C49 <= 1
 0.2 <= C50 <= 1
 0.2 <= C51 <= 1
 0.2 <= C52 <= 1
 0.2 <= C53 <= 1
 0.2 <= C54 <= 1
 0.2 <= C55 <= 1
 0.2 <= C56 <= 1
 0.2 <= C57 <= 1
 0.2 <= C58 <= 1
 C59 <= 3700
 C60 <= 3700
 C61 <= 3700
 C62 <= 3700
 C63 <= 3700
 C64 <= 3700
 C65 <= 3700
 C66 <= 3700
 C67 <= 3700
 C68 <= 3700
 C69 <= 3700
 C70 <= 3700
 Constant = 1
Binaries
 C7 C10 C95 C96 C97 C98 C99 C100 C101 C102 C103 C104 C105 C106 C131 C132
 C133 C134 C135 C136 C137 C138 C139 C140 C141 C142
End
